<number of tasks>
100

<cycle time>
1000

<order strength>
0.895


<task times>
1 461
2 326
3 176
4 26
5 183
6 130
7 49
8 190
9 320
10 280
11 155
12 85
13 503
14 76
15 80
16 330
17 155
18 229
19 114
20 33
21 493
22 222
23 48
24 70
25 61
26 90
27 67
28 155
29 276
30 248
31 529
32 54
33 505
34 31
35 249
36 160
37 519
38 68
39 37
40 285
41 512
42 223
43 59
44 330
45 139
46 78
47 42
48 215
49 67
50 371
51 126
52 348
53 154
54 188
55 572
56 253
57 310
58 557
59 175
60 219
61 139
62 57
63 187
64 130
65 74
66 260
67 496
68 195
69 263
70 306
71 34
72 124
73 262
74 180
75 128
76 277
77 150
78 169
79 399
80 115
81 448
82 47
83 51
84 193
85 58
86 125
87 104
88 290
89 158
90 507
91 177
92 542
93 593
94 132
95 129
96 487
97 79
98 71
99 25
100 118

<precedence relations>
1,4
1,5
1,6
2,4
2,5
2,6
3,4
3,5
4,7
4,8
4,9
5,7
5,8
5,9
6,7
6,8
7,10
7,11
7,12
7,13
8,11
8,12
8,13
9,10
9,11
9,12
9,13
10,14
10,15
10,16
10,17
11,14
11,15
11,16
11,17
12,14
12,15
12,16
12,17
13,14
13,15
13,16
13,17
14,18
14,19
14,20
14,21
14,22
15,18
15,19
15,20
15,21
15,22
16,18
16,19
16,20
16,21
16,22
17,18
17,19
17,21
18,23
19,23
19,24
19,25
19,26
20,30
20,32
21,23
21,24
21,26
22,23
22,24
22,25
22,26
23,27
23,28
24,27
24,33
25,27
25,28
26,27
26,28
27,29
27,31
27,36
28,29
28,30
28,31
28,32
29,34
29,35
29,37
30,33
30,34
30,35
30,36
30,37
31,37
31,39
32,33
32,39
33,38
33,40
34,40
35,38
35,39
35,40
36,38
36,39
36,40
37,38
37,40
38,41
38,42
38,43
39,41
39,42
39,43
40,41
40,42
40,43
41,44
41,45
41,46
42,44
42,45
42,46
43,44
43,45
43,46
44,70
45,47
45,48
45,49
46,47
46,48
47,70
48,51
48,52
49,50
49,51
49,52
50,53
50,54
50,55
51,53
51,54
51,55
52,53
52,54
52,55
53,57
54,56
54,66
55,56
56,60
57,58
57,59
57,60
58,61
58,62
58,63
59,61
59,62
59,63
60,61
61,64
61,65
61,67
62,67
62,70
63,64
63,65
63,66
63,67
64,68
64,69
64,70
64,71
65,68
65,69
65,71
66,70
66,75
67,71
67,73
67,84
68,75
69,74
69,76
69,80
70,72
70,73
70,76
70,79
71,75
72,93
73,77
73,81
74,79
75,78
75,83
75,85
76,78
76,94
77,80
78,81
79,82
80,94
80,100
82,83
82,84
82,85
83,87
83,88
83,90
84,90
85,86
85,89
86,97
87,92
87,94
87,99
88,91
88,93
88,100
91,96
92,95
92,97
94,97
95,100
96,98
96,99

<end>
